clingo version 5.7.2
Reading from ../axioms/dec_clingo.lp ...
Solving...
Answer: 1 (Time: 0.018s)
happens(throw,35) holdsAt(itsWhite,0) holdsAt(itsBlack,0) holdsAt(itsWhite,1) holdsAt(itsBlack,1) holdsAt(itsWhite,2) holdsAt(itsBlack,2) holdsAt(itsWhite,3) holdsAt(itsBlack,3) holdsAt(itsWhite,4) holdsAt(itsBlack,4) holdsAt(itsWhite,5) holdsAt(itsBlack,5) holdsAt(itsWhite,6) holdsAt(itsBlack,6) holdsAt(itsWhite,7) holdsAt(itsBlack,7) holdsAt(itsWhite,8) holdsAt(itsBlack,8) holdsAt(itsWhite,9) holdsAt(itsBlack,9) holdsAt(itsWhite,10) holdsAt(itsBlack,10) holdsAt(itsWhite,11) holdsAt(itsBlack,11) holdsAt(itsWhite,12) holdsAt(itsBlack,12) holdsAt(itsWhite,13) holdsAt(itsBlack,13) holdsAt(itsWhite,14) holdsAt(itsBlack,14) holdsAt(itsWhite,15) holdsAt(itsBlack,15) holdsAt(itsWhite,16) holdsAt(itsBlack,16) holdsAt(itsWhite,17) holdsAt(itsBlack,17) holdsAt(itsWhite,18) holdsAt(itsBlack,18) holdsAt(itsWhite,19) holdsAt(itsBlack,19) holdsAt(itsWhite,20) holdsAt(itsBlack,20) holdsAt(itsWhite,21) holdsAt(itsBlack,21) holdsAt(itsWhite,22) holdsAt(itsBlack,22) holdsAt(itsWhite,23) holdsAt(itsBlack,23) holdsAt(itsWhite,24) holdsAt(itsBlack,24) holdsAt(itsWhite,25) holdsAt(itsBlack,25) holdsAt(itsWhite,26) holdsAt(itsBlack,26) holdsAt(itsWhite,27) holdsAt(itsBlack,27) holdsAt(itsWhite,28) holdsAt(itsBlack,28) holdsAt(itsWhite,29) holdsAt(itsBlack,29) holdsAt(itsWhite,30) holdsAt(itsBlack,30) holdsAt(itsWhite,31) holdsAt(itsBlack,31) holdsAt(itsWhite,32) holdsAt(itsBlack,32) holdsAt(itsWhite,33) holdsAt(itsBlack,33) holdsAt(itsWhite,34) holdsAt(itsBlack,34) holdsAt(itsWhite,36) holdsAt(itsBlack,36) holdsAt(itsWhite,37) holdsAt(itsBlack,37) holdsAt(itsWhite,38) holdsAt(itsBlack,38) holdsAt(itsWhite,39) holdsAt(itsBlack,39) holdsAt(itsWhite,40) holdsAt(itsBlack,40) holdsAt(itsWhite,35) holdsAt(onWhite,36) holdsAt(onWhite,37) holdsAt(onWhite,38) holdsAt(onWhite,39) holdsAt(onWhite,40)
Answer: 2 (Time: 0.019s)
happens(throw,35) holdsAt(itsWhite,0) holdsAt(itsBlack,0) holdsAt(itsWhite,1) holdsAt(itsBlack,1) holdsAt(itsWhite,2) holdsAt(itsBlack,2) holdsAt(itsWhite,3) holdsAt(itsBlack,3) holdsAt(itsWhite,4) holdsAt(itsBlack,4) holdsAt(itsWhite,5) holdsAt(itsBlack,5) holdsAt(itsWhite,6) holdsAt(itsBlack,6) holdsAt(itsWhite,7) holdsAt(itsBlack,7) holdsAt(itsWhite,8) holdsAt(itsBlack,8) holdsAt(itsWhite,9) holdsAt(itsBlack,9) holdsAt(itsWhite,10) holdsAt(itsBlack,10) holdsAt(itsWhite,11) holdsAt(itsBlack,11) holdsAt(itsWhite,12) holdsAt(itsBlack,12) holdsAt(itsWhite,13) holdsAt(itsBlack,13) holdsAt(itsWhite,14) holdsAt(itsBlack,14) holdsAt(itsWhite,15) holdsAt(itsBlack,15) holdsAt(itsWhite,16) holdsAt(itsBlack,16) holdsAt(itsWhite,17) holdsAt(itsBlack,17) holdsAt(itsWhite,18) holdsAt(itsBlack,18) holdsAt(itsWhite,19) holdsAt(itsBlack,19) holdsAt(itsWhite,20) holdsAt(itsBlack,20) holdsAt(itsWhite,21) holdsAt(itsBlack,21) holdsAt(itsWhite,22) holdsAt(itsBlack,22) holdsAt(itsWhite,23) holdsAt(itsBlack,23) holdsAt(itsWhite,24) holdsAt(itsBlack,24) holdsAt(itsWhite,25) holdsAt(itsBlack,25) holdsAt(itsWhite,26) holdsAt(itsBlack,26) holdsAt(itsWhite,27) holdsAt(itsBlack,27) holdsAt(itsWhite,28) holdsAt(itsBlack,28) holdsAt(itsWhite,29) holdsAt(itsBlack,29) holdsAt(itsWhite,30) holdsAt(itsBlack,30) holdsAt(itsWhite,31) holdsAt(itsBlack,31) holdsAt(itsWhite,32) holdsAt(itsBlack,32) holdsAt(itsWhite,33) holdsAt(itsBlack,33) holdsAt(itsWhite,34) holdsAt(itsBlack,34) holdsAt(itsWhite,36) holdsAt(itsBlack,36) holdsAt(itsWhite,37) holdsAt(itsBlack,37) holdsAt(itsWhite,38) holdsAt(itsBlack,38) holdsAt(itsWhite,39) holdsAt(itsBlack,39) holdsAt(itsWhite,40) holdsAt(itsBlack,40) holdsAt(itsBlack,35) holdsAt(onBlack,36) holdsAt(onBlack,37) holdsAt(onBlack,38) holdsAt(onBlack,39) holdsAt(onBlack,40)
Answer: 3 (Time: 0.019s)
happens(throw,35) holdsAt(itsWhite,0) holdsAt(itsBlack,0) holdsAt(itsWhite,1) holdsAt(itsBlack,1) holdsAt(itsWhite,2) holdsAt(itsBlack,2) holdsAt(itsWhite,3) holdsAt(itsBlack,3) holdsAt(itsWhite,4) holdsAt(itsBlack,4) holdsAt(itsWhite,5) holdsAt(itsBlack,5) holdsAt(itsWhite,6) holdsAt(itsBlack,6) holdsAt(itsWhite,7) holdsAt(itsBlack,7) holdsAt(itsWhite,8) holdsAt(itsBlack,8) holdsAt(itsWhite,9) holdsAt(itsBlack,9) holdsAt(itsWhite,10) holdsAt(itsBlack,10) holdsAt(itsWhite,11) holdsAt(itsBlack,11) holdsAt(itsWhite,12) holdsAt(itsBlack,12) holdsAt(itsWhite,13) holdsAt(itsBlack,13) holdsAt(itsWhite,14) holdsAt(itsBlack,14) holdsAt(itsWhite,15) holdsAt(itsBlack,15) holdsAt(itsWhite,16) holdsAt(itsBlack,16) holdsAt(itsWhite,17) holdsAt(itsBlack,17) holdsAt(itsWhite,18) holdsAt(itsBlack,18) holdsAt(itsWhite,19) holdsAt(itsBlack,19) holdsAt(itsWhite,20) holdsAt(itsBlack,20) holdsAt(itsWhite,21) holdsAt(itsBlack,21) holdsAt(itsWhite,22) holdsAt(itsBlack,22) holdsAt(itsWhite,23) holdsAt(itsBlack,23) holdsAt(itsWhite,24) holdsAt(itsBlack,24) holdsAt(itsWhite,25) holdsAt(itsBlack,25) holdsAt(itsWhite,26) holdsAt(itsBlack,26) holdsAt(itsWhite,27) holdsAt(itsBlack,27) holdsAt(itsWhite,28) holdsAt(itsBlack,28) holdsAt(itsWhite,29) holdsAt(itsBlack,29) holdsAt(itsWhite,30) holdsAt(itsBlack,30) holdsAt(itsWhite,31) holdsAt(itsBlack,31) holdsAt(itsWhite,32) holdsAt(itsBlack,32) holdsAt(itsWhite,33) holdsAt(itsBlack,33) holdsAt(itsWhite,34) holdsAt(itsBlack,34) holdsAt(itsWhite,36) holdsAt(itsBlack,36) holdsAt(itsWhite,37) holdsAt(itsBlack,37) holdsAt(itsWhite,38) holdsAt(itsBlack,38) holdsAt(itsWhite,39) holdsAt(itsBlack,39) holdsAt(itsWhite,40) holdsAt(itsBlack,40) holdsAt(itsWhite,35) holdsAt(itsBlack,35) holdsAt(onBlack,36) holdsAt(onBlack,37) holdsAt(onBlack,38) holdsAt(onBlack,39) holdsAt(onBlack,40) holdsAt(onWhite,36) holdsAt(onWhite,37) holdsAt(onWhite,38) holdsAt(onWhite,39) holdsAt(onWhite,40)
SATISFIABLE

Models       : 3
Calls        : 1
Time         : 0.020s (Solving: 0.00s 1st Model: 0.00s Unsat: 0.00s)
CPU Time     : 0.008s
